(set-logic QF_NRA)
(declare-fun skoY () Real)
(declare-fun skoX () Real)
(declare-fun pi () Real)
(assert (and (not (= skoY 0)) (and (or (not (<= (+ (* (- 1) skoY) (* 2000 skoX)) 0)) (not (<= (+ skoY (* (- 2000) skoX)) 0))) (and (not (<= (+ skoY (* (- 1) skoX)) 0)) (and (not (<= skoX 0)) (and (not (<= (+ (* (- 2) skoY) pi) 0)) (and (not (<= (* (- 10000000) pi) (- 31415927))) (not (<= (* 5000000 pi) 15707963)))))))))
(set-info :status sat)
(check-sat)
